200
200
201
202
203
204
205
206
207
208
209
210
211
212
213
214
215
216
217
218
219
220
221
222
223
224
225
226
227
228
229
230
231
232
233
234
235
236
237
238
239
240
241
242
243
244
245
246
247
248
249
250
251
252
253
254
255
256
257
258
259
260
261
262
263
264
265
266
267
268
269
270
271
272
273
274
275
276
277
278
279
280
281
282
283
284
285
286
287
288
289
290
291
292
293
294
295
296
297
298
299
296
289
283
281
263
260
259
243
237
235
234
228
227
226
221
218
215
214
211
208
207
204
203
200
199
198
192
191
189
186
185
183
182
179
178
177
175
174
171
169
165
164
163
160
159
158
154
152
151
147
139
138
136
133
130
128
125
120
119
112
108
107
103
102
99
92
88
87
84
75
72
69
66
63
57
54
52
51
50
49
48
44
41
37
36
35
34
33
30
29
28
26
25
23
14
6
4
3
1
299
END